WARNING: for repeatability, setting FPU to use double precision
============================[ Problem Statistics ]=============================
|                                                                             |
|  Number of variables:           100                                         |
|  Number of clauses:             449                                         |
|  Parse time:                   0.00 s                                       |
|  Eliminated clauses:           0.00 Mb                                      |
|  Simplification time:          0.00 s                                       |
|                                                                             |
============================[ Search Statistics ]==============================
| Conflicts |          ORIGINAL         |          LEARNT          | Progress |
|           |    Vars  Clauses Literals |    Limit  Clauses Lit/Cl |          |
===============================================================================
|       100 |      96      444     1355 |      162      100      7 |  0.010 % |
|       250 |      96      444     1355 |      179      167      7 |  0.010 % |
===============================================================================
restarts              : 3
conflicts             : 292            (93710 /sec)
decisions             : 382            (0.00 % random) (122593 /sec)
propagations          : 6566           (2107189 /sec)
conflict literals     : 2041           (15.28 % deleted)
Memory used           : 13.00 MB
CPU time              : 0.003116 s

SATISFIABLE
